c A SAT instance generated from a 3-CNF formula that had 50 clauses and 10 variables
p cnf 10 50
-5 2 -6 0
-3 1 -4 0
-4 -7 6 0
-4 1 -7 0
-1 -3 -7 0
3 -10 -7 0
-4 -7 2 0
5 -3 -6 0
6 5 4 0
5 7 9 0
2 -3 -5 0
7 3 -4 0
8 2 6 0
-1 -9 3 0
9 7 6 0
-5 -8 -6 0
8 6 2 0
-10 1 4 0
9 -4 -6 0
4 -5 -7 0
-3 -7 -1 0
-2 -6 -8 0
4 -1 6 0
-7 -5 10 0
-7 9 6 0
-3 5 7 0
10 6 -2 0
8 10 6 0
-7 -5 -4 0
-3 9 10 0
-8 7 -2 0
-8 -1 -10 0
10 -5 -3 0
-1 -2 -10 0
-3 -2 -10 0
10 9 -2 0
-6 10 9 0
-6 8 3 0
5 7 1 0
-10 3 9 0
5 8 1 0
-1 -2 9 0
6 -1 9 0
-8 -3 5 0
1 -8 5 0
-2 8 -4 0
10 -7 2 0
-5 -1 3 0
-3 -6 5 0
8 -9 7 0
%
0

37 44 52 67 76 53 60 35 38 99
